NAME example05.mps
ROWS
 N  obj     
 G  c1
 G  c2
COLUMNS
    x1        obj                  50
    x1        c1                   25   c2                    1
    x2        obj                  65
    x2        c1                   40   c2                    1
RHS
    rhs       c1                   100  c2                    3
ENDATA
